<number of tasks>
89

<cycle time>
15

<task times>
1 1
2 2
3 3
4 4
5 5
6 6
7 7
8 8
9 9
10 10
11 1
12 2
13 3
14 4
15 5
16 6
17 7
18 8
19 9
20 10
21 1
22 2
23 3
24 4
25 5
26 6
27 7
28 8
29 9
30 10
31 1
32 2
33 3
34 4
35 5
36 6
37 7
38 8
39 9
40 10
41 1
42 2
43 3
44 4
45 5
46 6
47 7
48 8
49 9
50 10
51 1
52 2
53 3
54 4
55 5
56 6
57 7
58 8
59 9
60 10
61 1
62 2
63 3
64 4
65 5
66 6
67 7
68 8
69 9
70 10
71 1
72 2
73 3
74 4
75 5
76 6
77 7
78 8
79 9
80 10
81 1
82 2
83 3
84 4
85 5
86 6
87 7
88 8
89 9

<precedence relations>
1,2
2,3
3,4
4,5
4,6
4,7
4,8
4,9
5,10
6,11
7,12
8,18
9,18
10,14
11,12
12,13
13,14
14,15
14,16
15,17
16,54
17,18
18,19
18,20
19,22
20,21
20,28
21,54
22,23
23,24
24,25
25,26
25,27
25,29
26,37
27,33
28,29
29,31
30,54
31,32
32,33
33,34
34,35
35,36
35,37
36,38
37,38
38,39
39,40
39,41
39,42
39,43
40,44
41,53
42,53
43,45
44,52
45,46
46,47
47,48
47,49
49,50
50,51
51,52
52,53
53,68
53,69
53,70
53,71
54,55
55,56
56,57
57,58
57,59
57,60
57,61
57,62
57,63
57,64
57,65
57,66
58,67
59,67
60,67
61,67
62,67
63,67
64,67
65,67
66,67
67,73
68,72
69,72
70,72
71,73
72,78
72,80
73,74
74,75
74,76
75,77
76,81
77,78
78,79
79,81
80,81
81,82
81,84
81,85
82,83
83,86
84,86
85,86
86,87
87,88
87,89

<setup times forward>
1,30:2
2,30:2
3,30:2
4,6:1
4,7:1
4,30:2
5,6:1
5,7:1
5,10:1
5,11:1
5,12:1
5,13:1
5,30:2
6,5:1
6,8:1
6,9:1
6,10:2
6,30:3
7,5:1
7,8:1
7,9:1
7,10:2
7,12:2
7,30:3
8,6:1
8,7:1
8,10:1
8,11:1
8,12:1
8,13:1
8,16:1
8,17:1
8,18:1
8,30:2
9,6:1
9,7:1
9,10:1
9,11:1
9,12:1
9,13:1
9,16:1
9,17:1
9,18:1
9,30:2
10,6:2
10,7:2
10,8:1
10,9:1
10,11:2
10,14:1
10,30:1
11,5:1
11,8:1
11,9:1
11,10:2
11,12:2
11,30:3
12,5:1
12,8:1
12,9:1
12,30:1
13,5:1
13,8:1
13,9:1
13,14:1
13,30:1
14,16:1
14,30:2
15,16:1
15,17:1
15,30:2
16,8:1
16,9:1
16,15:1
16,17:2
16,18:2
16,19:3
16,20:1
16,21:1
16,22:3
16,23:3
16,27:2
16,28:2
16,29:3
16,30:3
16,31:3
16,32:3
16,33:3
16,34:1
16,35:1
16,36:1
16,37:1
16,38:1
16,41:3
16,42:3
16,43:3
16,45:3
16,46:3
16,47:2
16,48:2
16,49:1
16,52:3
16,53:3
16,54:3
16,68:2
16,69:2
16,70:3
16,71:3
16,72:3
16,80:1
17,8:1
17,9:1
17,16:2
17,30:1
18,16:2
18,19:1
18,20:1
18,30:1
19,16:3
19,20:2
19,21:2
19,28:1
19,55:3
19,56:2
19,57:3
19,58:3
19,60:3
19,61:1
19,62:1
19,64:1
19,65:3
19,66:1
20,16:1
20,19:2
20,22:2
20,23:2
20,24:1
20,25:1
20,26:1
20,27:1
20,28:1
20,30:2
21,16:1
21,19:2
21,22:2
21,23:2
21,24:1
21,25:1
21,26:1
21,27:1
21,28:1
21,29:2
21,30:2
21,31:2
21,32:2
21,33:2
21,39:1
21,40:1
21,41:2
21,42:2
21,43:2
21,44:1
21,45:2
21,46:2
21,47:1
21,48:1
21,50:1
21,51:1
21,52:2
21,53:2
21,54:2
21,68:1
21,69:1
21,70:2
21,71:2
21,72:2
22,16:3
22,20:2
22,21:2
22,28:1
22,55:3
22,56:2
22,57:3
22,58:3
22,60:3
22,61:1
22,62:1
22,64:1
22,65:3
22,66:1
23,16:3
23,20:2
23,21:2
23,24:3
23,28:1
23,55:3
23,56:2
23,57:3
23,58:3
23,60:3
23,61:1
23,62:1
23,64:1
23,65:3
23,66:1
24,20:1
24,21:1
24,28:2
24,30:3
24,54:3
24,56:1
24,59:3
24,61:2
24,62:2
24,63:3
24,64:2
24,66:2
24,67:3
25,20:1
25,21:1
25,27:2
25,28:2
25,29:3
25,30:3
25,54:3
25,56:1
25,59:3
25,61:2
25,62:2
25,63:3
25,64:2
25,66:2
25,67:3
26,20:1
26,21:1
26,27:2
26,28:2
26,29:3
26,30:3
26,31:3
26,32:3
26,33:3
26,34:1
26,35:1
26,36:1
26,37:1
26,54:3
26,56:1
26,59:3
26,61:2
26,62:2
26,63:3
26,64:2
26,66:2
26,67:3
27,16:2
27,20:1
27,21:1
27,26:2
27,29:1
27,30:1
27,31:1
27,32:1
27,33:1
27,54:1
27,55:2
27,56:1
27,57:2
27,58:2
27,59:1
27,60:2
27,63:1
27,65:2
27,67:1
28,16:2
28,19:1
28,21:1
28,22:1
28,23:1
28,24:2
28,25:2
28,26:2
28,29:1
28,30:1
28,54:1
28,55:2
28,56:1
28,57:2
28,58:2
28,59:1
28,60:2
28,63:1
28,65:2
28,67:1
29,16:3
29,21:2
29,26:3
29,27:1
29,55:3
29,56:2
29,57:3
29,58:3
29,60:3
29,61:1
29,62:1
29,64:1
29,65:3
29,66:1
30,1:2
30,2:2
30,3:2
30,4:2
30,5:2
30,6:3
30,7:3
30,8:2
30,9:2
30,10:1
30,11:3
30,12:1
30,13:1
30,14:2
30,15:2
30,16:3
30,17:1
30,18:1
30,20:2
30,21:2
30,24:3
30,25:3
30,26:3
30,27:1
30,28:1
30,34:2
30,35:2
30,36:2
30,37:2
30,38:2
30,39:3
30,40:3
30,44:3
30,47:1
30,48:1
30,49:2
30,50:3
30,51:3
30,68:1
30,69:1
30,80:2
31,16:3
31,21:2
31,26:3
31,27:1
31,55:3
31,56:2
31,57:3
31,58:3
31,60:3
31,61:1
31,62:1
31,64:1
31,65:3
31,66:1
32,16:3
32,21:2
32,26:3
32,27:1
32,55:3
32,56:2
32,57:3
32,58:3
32,60:3
32,61:1
32,62:1
32,64:1
32,65:3
32,66:1
33,16:3
33,21:2
33,26:3
33,34:2
33,55:3
33,56:2
33,57:3
33,58:3
33,60:3
33,61:1
33,62:1
33,64:1
33,65:3
33,66:1
34,16:1
34,26:1
34,30:2
34,54:2
34,55:1
34,57:1
34,58:1
34,59:2
34,60:1
34,61:1
34,62:1
34,63:2
34,64:1
34,65:1
34,66:1
34,67:2
35,16:1
35,26:1
35,30:2
35,54:2
35,55:1
35,57:1
35,58:1
35,59:2
35,60:1
35,61:1
35,62:1
35,63:2
35,64:1
35,65:1
35,66:1
35,67:2
36,16:1
36,26:1
36,30:2
36,54:2
36,55:1
36,57:1
36,58:1
36,59:2
36,60:1
36,61:1
36,62:1
36,63:2
36,64:1
36,65:1
36,66:1
36,67:2
37,16:1
37,30:2
37,54:2
37,55:1
37,57:1
37,58:1
37,59:2
37,60:1
37,61:1
37,62:1
37,63:2
37,64:1
37,65:1
37,66:1
37,67:2
38,16:1
38,30:2
38,39:1
38,54:2
38,55:1
38,57:1
38,58:1
38,59:2
38,60:1
38,61:1
38,62:1
38,63:2
38,64:1
38,65:1
38,66:1
38,67:2
39,21:1
39,30:3
39,41:3
39,42:3
39,43:3
39,54:3
39,56:1
39,59:3
39,61:2
39,62:2
39,63:3
39,64:2
39,66:2
39,67:3
40,21:1
40,30:3
40,41:3
40,42:3
40,43:3
40,45:3
40,46:3
40,47:2
40,48:2
40,49:1
40,54:3
40,56:1
40,59:3
40,61:2
40,62:2
40,63:3
40,64:2
40,66:2
40,67:3
41,16:3
41,21:2
41,40:3
41,44:3
41,47:1
41,48:1
41,49:2
41,50:3
41,51:3
41,55:3
41,56:2
41,57:3
41,58:3
41,60:3
41,61:1
41,62:1
41,64:1
41,65:3
41,66:1
42,16:3
42,21:2
42,40:3
42,44:3
42,47:1
42,48:1
42,49:2
42,50:3
42,51:3
42,55:3
42,56:2
42,57:3
42,58:3
42,60:3
42,61:1
42,62:1
42,64:1
42,65:3
42,66:1
43,16:3
43,21:2
43,40:3
43,44:3
43,55:3
43,56:2
43,57:3
43,58:3
43,60:3
43,61:1
43,62:1
43,64:1
43,65:3
43,66:1
44,21:1
44,30:3
44,41:3
44,42:3
44,43:3
44,45:3
44,46:3
44,47:2
44,48:2
44,49:1
44,52:3
44,54:3
44,56:1
44,59:3
44,61:2
44,62:2
44,63:3
44,64:2
44,66:2
44,67:3
45,16:3
45,21:2
45,40:3
45,44:3
45,55:3
45,56:2
45,57:3
45,58:3
45,60:3
45,61:1
45,62:1
45,64:1
45,65:3
45,66:1
46,16:3
46,21:2
46,40:3
46,44:3
46,47:1
46,55:3
46,56:2
46,57:3
46,58:3
46,60:3
46,61:1
46,62:1
46,64:1
46,65:3
46,66:1
47,16:2
47,21:1
47,30:1
47,40:2
47,41:1
47,42:1
47,44:2
47,49:1
47,54:1
47,55:2
47,56:1
47,57:2
47,58:2
47,59:1
47,60:2
47,63:1
47,65:2
47,67:1
48,16:2
48,21:1
48,30:1
48,40:2
48,41:1
48,42:1
48,44:2
48,49:1
48,50:2
48,51:2
48,52:1
48,53:1
48,54:1
48,55:2
48,56:1
48,57:2
48,58:2
48,59:1
48,60:2
48,63:1
48,65:2
48,67:1
48,70:1
48,71:1
48,72:1
48,73:1
48,74:1
48,75:1
48,76:2
48,77:1
48,78:1
48,79:1
48,80:1
48,81:2
48,82:2
48,83:2
48,84:2
48,85:2
48,86:2
48,87:1
48,88:1
48,89:1
49,16:1
49,30:2
49,40:1
49,41:2
49,42:2
49,44:1
49,48:1
49,50:1
49,54:2
49,55:1
49,57:1
49,58:1
49,59:2
49,60:1
49,61:1
49,62:1
49,63:2
49,64:1
49,65:1
49,66:1
49,67:2
50,21:1
50,30:3
50,41:3
50,42:3
50,48:2
50,54:3
50,56:1
50,59:3
50,61:2
50,62:2
50,63:3
50,64:2
50,66:2
50,67:3
51,21:1
51,30:3
51,41:3
51,42:3
51,48:2
51,52:3
51,54:3
51,56:1
51,59:3
51,61:2
51,62:2
51,63:3
51,64:2
51,66:2
51,67:3
52,16:3
52,21:2
52,48:1
52,55:3
52,56:2
52,57:3
52,58:3
52,60:3
52,61:1
52,62:1
52,64:1
52,65:3
52,66:1
53,16:3
53,21:2
53,48:1
53,55:3
53,56:2
53,57:3
53,58:3
53,60:3
53,61:1
53,62:1
53,64:1
53,65:3
53,66:1
53,68:1
53,69:1
54,24:3
54,25:3
54,26:3
54,27:1
54,28:1
54,34:2
54,35:2
54,36:2
54,37:2
54,38:2
54,39:3
54,40:3
54,44:3
54,47:1
54,48:1
54,49:2
54,50:3
54,51:3
54,55:3
54,68:1
54,69:1
54,80:2
55,19:3
55,22:3
55,23:3
55,27:2
55,28:2
55,29:3
55,31:3
55,32:3
55,33:3
55,34:1
55,35:1
55,36:1
55,37:1
55,38:1
55,41:3
55,42:3
55,43:3
55,45:3
55,46:3
55,47:2
55,48:2
55,49:1
55,52:3
55,53:3
55,56:1
55,68:2
55,69:2
55,70:3
55,71:3
55,72:3
55,80:1
56,19:2
56,22:2
56,23:2
56,24:1
56,25:1
56,26:1
56,27:1
56,28:1
56,29:2
56,31:2
56,32:2
56,33:2
56,39:1
56,40:1
56,41:2
56,42:2
56,43:2
56,44:1
56,45:2
56,46:2
56,47:1
56,48:1
56,50:1
56,51:1
56,52:2
56,53:2
56,57:1
56,68:1
56,69:1
56,70:2
56,71:2
56,72:2
57,19:3
57,22:3
57,23:3
57,27:2
57,28:2
57,29:3
57,31:3
57,32:3
57,33:3
57,34:1
57,35:1
57,36:1
57,37:1
57,38:1
57,41:3
57,42:3
57,43:3
57,45:3
57,46:3
57,47:2
57,48:2
57,49:1
57,52:3
57,53:3
57,59:3
57,61:2
57,62:2
57,63:3
57,64:2
57,66:2
57,68:2
57,69:2
57,70:3
57,71:3
57,72:3
57,80:1
58,19:3
58,22:3
58,23:3
58,27:2
58,28:2
58,29:3
58,31:3
58,32:3
58,33:3
58,34:1
58,35:1
58,36:1
58,37:1
58,38:1
58,41:3
58,42:3
58,43:3
58,45:3
58,46:3
58,47:2
58,48:2
58,49:1
58,52:3
58,53:3
58,59:3
58,61:2
58,62:2
58,63:3
58,64:2
58,66:2
58,67:3
58,68:2
58,69:2
58,70:3
58,71:3
58,72:3
58,80:1
59,24:3
59,25:3
59,26:3
59,27:1
59,28:1
59,34:2
59,35:2
59,36:2
59,37:2
59,38:2
59,39:3
59,40:3
59,44:3
59,47:1
59,48:1
59,49:2
59,50:3
59,51:3
59,58:3
59,60:3
59,61:1
59,62:1
59,64:1
59,65:3
59,66:1
59,68:1
59,69:1
59,80:2
60,19:3
60,22:3
60,23:3
60,27:2
60,28:2
60,29:3
60,31:3
60,32:3
60,33:3
60,34:1
60,35:1
60,36:1
60,37:1
60,38:1
60,41:3
60,42:3
60,43:3
60,45:3
60,46:3
60,47:2
60,48:2
60,49:1
60,52:3
60,53:3
60,59:3
60,61:2
60,62:2
60,63:3
60,64:2
60,66:2
60,67:3
60,68:2
60,69:2
60,70:3
60,71:3
60,72:3
60,80:1
61,19:1
61,22:1
61,23:1
61,24:2
61,25:2
61,26:2
61,29:1
61,31:1
61,32:1
61,33:1
61,34:1
61,35:1
61,36:1
61,37:1
61,38:1
61,39:2
61,40:2
61,41:1
61,42:1
61,43:1
61,44:2
61,45:1
61,46:1
61,49:1
61,50:2
61,51:2
61,52:1
61,53:1
61,58:2
61,59:1
61,60:2
61,63:1
61,65:2
61,67:1
61,70:1
61,71:1
61,72:1
61,80:1
62,19:1
62,22:1
62,23:1
62,24:2
62,25:2
62,26:2
62,29:1
62,31:1
62,32:1
62,33:1
62,34:1
62,35:1
62,36:1
62,37:1
62,38:1
62,39:2
62,40:2
62,41:1
62,42:1
62,43:1
62,44:2
62,45:1
62,46:1
62,49:1
62,50:2
62,51:2
62,52:1
62,53:1
62,58:2
62,59:1
62,60:2
62,63:1
62,65:2
62,67:1
62,70:1
62,71:1
62,72:1
62,80:1
63,24:3
63,25:3
63,26:3
63,27:1
63,28:1
63,34:2
63,35:2
63,36:2
63,37:2
63,38:2
63,39:3
63,40:3
63,44:3
63,47:1
63,48:1
63,49:2
63,50:3
63,51:3
63,58:3
63,60:3
63,61:1
63,62:1
63,64:1
63,65:3
63,66:1
63,68:1
63,69:1
63,80:2
64,19:1
64,22:1
64,23:1
64,24:2
64,25:2
64,26:2
64,29:1
64,31:1
64,32:1
64,33:1
64,34:1
64,35:1
64,36:1
64,37:1
64,38:1
64,39:2
64,40:2
64,41:1
64,42:1
64,43:1
64,44:2
64,45:1
64,46:1
64,49:1
64,50:2
64,51:2
64,52:1
64,53:1
64,58:2
64,59:1
64,60:2
64,63:1
64,65:2
64,67:1
64,70:1
64,71:1
64,72:1
64,80:1
65,19:3
65,22:3
65,23:3
65,27:2
65,28:2
65,29:3
65,31:3
65,32:3
65,33:3
65,34:1
65,35:1
65,36:1
65,37:1
65,38:1
65,41:3
65,42:3
65,43:3
65,45:3
65,46:3
65,47:2
65,48:2
65,49:1
65,52:3
65,53:3
65,59:3
65,61:2
65,62:2
65,63:3
65,64:2
65,66:2
65,67:3
65,68:2
65,69:2
65,70:3
65,71:3
65,72:3
65,80:1
66,19:1
66,22:1
66,23:1
66,24:2
66,25:2
66,26:2
66,29:1
66,31:1
66,32:1
66,33:1
66,34:1
66,35:1
66,36:1
66,37:1
66,38:1
66,39:2
66,40:2
66,41:1
66,42:1
66,43:1
66,44:2
66,45:1
66,46:1
66,49:1
66,50:2
66,51:2
66,52:1
66,53:1
66,58:2
66,59:1
66,60:2
66,63:1
66,65:2
66,67:1
66,70:1
66,71:1
66,72:1
66,80:1
67,24:3
67,25:3
67,26:3
67,27:1
67,28:1
67,34:2
67,35:2
67,36:2
67,37:2
67,38:2
67,39:3
67,40:3
67,44:3
67,47:1
67,48:1
67,49:2
67,50:3
67,51:3
67,68:1
67,69:1
67,80:2
68,16:2
68,21:1
68,30:1
68,54:1
68,55:2
68,56:1
68,57:2
68,58:2
68,59:1
68,60:2
68,63:1
68,65:2
68,67:1
68,70:1
68,71:1
68,72:1
68,73:1
68,74:1
68,75:1
68,76:2
68,77:1
69,16:2
69,21:1
69,30:1
69,54:1
69,55:2
69,56:1
69,57:2
69,58:2
69,59:1
69,60:2
69,63:1
69,65:2
69,67:1
69,70:1
69,71:1
69,72:1
69,73:1
69,74:1
69,75:1
69,76:2
69,77:1
70,16:3
70,21:2
70,48:1
70,55:3
70,56:2
70,57:3
70,58:3
70,60:3
70,61:1
70,62:1
70,64:1
70,65:3
70,66:1
70,68:1
70,69:1
70,75:2
70,76:3
71,16:3
71,21:2
71,48:1
71,55:3
71,56:2
71,57:3
71,58:3
71,60:3
71,61:1
71,62:1
71,64:1
71,65:3
71,66:1
71,68:1
71,69:1
71,80:2
72,16:3
72,21:2
72,48:1
72,55:3
72,56:2
72,57:3
72,58:3
72,60:3
72,61:1
72,62:1
72,64:1
72,65:3
72,66:1
72,75:2
72,76:3
72,80:2
73,48:1
73,68:1
73,69:1
73,80:2
74,48:1
74,68:1
74,69:1
74,75:2
74,76:3
74,80:2
75,48:1
75,68:1
75,69:1
75,70:2
75,72:2
75,76:1
75,77:2
76,48:2
76,68:2
76,69:2
76,70:3
76,72:3
76,75:1
76,77:3
76,78:3
76,79:1
76,80:1
77,48:1
77,68:1
77,69:1
77,76:3
77,80:2
78,48:1
78,76:3
78,79:2
78,80:2
79,48:1
79,76:1
79,81:1
80,16:1
80,30:2
80,48:1
80,54:2
80,55:1
80,57:1
80,58:1
80,59:2
80,60:1
80,61:1
80,62:1
80,63:2
80,64:1
80,65:1
80,66:1
80,67:2
80,71:2
80,73:2
80,74:2
80,76:1
80,77:2
80,78:2
80,81:1
81,48:2
82,48:2
83,48:2
84,48:2
85,48:2
86,48:2
86,87:1
87,48:1
88,48:1
89,48:1

<setup times backward>
1,30:2
2,30:2
3,30:2
4,30:2
5,12:1
5,13:1
5,30:2
6,1:1
6,2:1
6,3:1
6,4:1
6,5:1
6,8:1
6,9:1
6,10:2
6,30:3
7,1:1
7,2:1
7,3:1
7,4:1
7,5:1
7,8:1
7,9:1
7,10:2
7,30:3
8,10:1
8,12:1
8,13:1
8,17:1
8,30:2
9,10:1
9,12:1
9,13:1
9,17:1
9,30:2
10,30:1
11,1:1
11,2:1
11,3:1
11,4:1
11,5:1
11,8:1
11,9:1
11,10:2
11,30:3
12,30:1
13,30:1
14,10:1
14,12:1
14,13:1
14,30:2
15,10:1
15,12:1
15,13:1
15,30:2
16,1:1
16,2:1
16,3:1
16,4:1
16,5:1
16,8:1
16,9:1
16,10:2
16,12:2
16,13:2
16,14:1
16,15:1
16,17:2
16,18:2
16,19:3
16,20:1
16,21:1
16,22:3
16,23:3
16,27:2
16,28:2
16,29:3
16,30:3
16,31:3
16,32:3
16,33:3
16,34:1
16,35:1
16,36:1
16,37:1
16,38:1
16,41:3
16,42:3
16,43:3
16,45:3
16,46:3
16,47:2
16,48:2
16,49:1
16,52:3
16,53:3
16,68:2
16,69:2
16,70:3
16,71:3
16,72:3
16,80:1
17,30:1
18,30:1
20,10:1
20,12:1
20,13:1
20,17:1
20,18:1
20,19:2
20,22:2
20,23:2
20,27:1
20,30:2
21,10:1
21,12:1
21,13:1
21,17:1
21,18:1
21,19:2
21,22:2
21,23:2
21,27:1
21,28:1
21,29:2
21,30:2
21,31:2
21,32:2
21,33:2
21,41:2
21,42:2
21,43:2
21,45:2
21,46:2
21,47:1
21,48:1
21,52:2
21,53:2
21,68:1
21,69:1
21,70:2
21,71:2
21,72:2
24,1:1
24,2:1
24,3:1
24,4:1
24,5:1
24,8:1
24,9:1
24,10:2
24,12:2
24,13:2
24,14:1
24,15:1
24,17:2
24,18:2
24,19:3
24,20:1
24,21:1
24,22:3
24,23:3
24,28:2
24,30:3
24,54:3
24,56:1
24,59:3
24,61:2
24,62:2
24,63:3
24,64:2
24,66:2
24,67:3
25,1:1
25,2:1
25,3:1
25,4:1
25,5:1
25,8:1
25,9:1
25,10:2
25,12:2
25,13:2
25,14:1
25,15:1
25,17:2
25,18:2
25,19:3
25,20:1
25,21:1
25,22:3
25,23:3
25,28:2
25,30:3
25,54:3
25,56:1
25,59:3
25,61:2
25,62:2
25,63:3
25,64:2
25,66:2
25,67:3
26,1:1
26,2:1
26,3:1
26,4:1
26,5:1
26,8:1
26,9:1
26,10:2
26,12:2
26,13:2
26,14:1
26,15:1
26,17:2
26,18:2
26,19:3
26,20:1
26,21:1
26,22:3
26,23:3
26,27:2
26,28:2
26,29:3
26,30:3
26,31:3
26,32:3
26,33:3
26,34:1
26,35:1
26,36:1
26,54:3
26,56:1
26,59:3
26,61:2
26,62:2
26,63:3
26,64:2
26,66:2
26,67:3
27,19:1
27,22:1
27,23:1
27,29:1
27,30:1
27,31:1
27,32:1
27,54:1
27,59:1
27,63:1
27,67:1
28,19:1
28,22:1
28,23:1
28,30:1
28,54:1
28,59:1
28,63:1
28,67:1
34,10:1
34,12:1
34,13:1
34,17:1
34,18:1
34,19:2
34,22:2
34,23:2
34,27:1
34,28:1
34,29:2
34,30:2
34,31:2
34,32:2
34,33:2
34,54:2
34,59:2
34,61:1
34,62:1
34,63:2
34,64:1
34,66:1
34,67:2
35,10:1
35,12:1
35,13:1
35,17:1
35,18:1
35,19:2
35,22:2
35,23:2
35,27:1
35,28:1
35,29:2
35,30:2
35,31:2
35,32:2
35,33:2
35,54:2
35,59:2
35,61:1
35,62:1
35,63:2
35,64:1
35,66:1
35,67:2
36,10:1
36,12:1
36,13:1
36,17:1
36,18:1
36,19:2
36,22:2
36,23:2
36,27:1
36,28:1
36,29:2
36,30:2
36,31:2
36,32:2
36,33:2
36,54:2
36,59:2
36,61:1
36,62:1
36,63:2
36,64:1
36,66:1
36,67:2
37,10:1
37,12:1
37,13:1
37,17:1
37,18:1
37,19:2
37,22:2
37,23:2
37,27:1
37,28:1
37,29:2
37,30:2
37,31:2
37,32:2
37,33:2
37,54:2
37,59:2
37,61:1
37,62:1
37,63:2
37,64:1
37,66:1
37,67:2
38,10:1
38,12:1
38,13:1
38,17:1
38,18:1
38,19:2
38,22:2
38,23:2
38,27:1
38,28:1
38,29:2
38,30:2
38,31:2
38,32:2
38,33:2
38,54:2
38,59:2
38,61:1
38,62:1
38,63:2
38,64:1
38,66:1
38,67:2
39,1:1
39,2:1
39,3:1
39,4:1
39,5:1
39,8:1
39,9:1
39,10:2
39,12:2
39,13:2
39,14:1
39,15:1
39,17:2
39,18:2
39,19:3
39,20:1
39,21:1
39,22:3
39,23:3
39,27:2
39,28:2
39,29:3
39,30:3
39,31:3
39,32:3
39,33:3
39,34:1
39,35:1
39,36:1
39,37:1
39,38:1
39,54:3
39,56:1
39,59:3
39,61:2
39,62:2
39,63:3
39,64:2
39,66:2
39,67:3
40,1:1
40,2:1
40,3:1
40,4:1
40,5:1
40,8:1
40,9:1
40,10:2
40,12:2
40,13:2
40,14:1
40,15:1
40,17:2
40,18:2
40,19:3
40,20:1
40,21:1
40,22:3
40,23:3
40,27:2
40,28:2
40,29:3
40,30:3
40,31:3
40,32:3
40,33:3
40,34:1
40,35:1
40,36:1
40,37:1
40,38:1
40,41:3
40,42:3
40,43:3
40,45:3
40,46:3
40,47:2
40,48:2
40,49:1
40,54:3
40,56:1
40,59:3
40,61:2
40,62:2
40,63:3
40,64:2
40,66:2
40,67:3
44,1:1
44,2:1
44,3:1
44,4:1
44,5:1
44,8:1
44,9:1
44,10:2
44,12:2
44,13:2
44,14:1
44,15:1
44,17:2
44,18:2
44,19:3
44,20:1
44,21:1
44,22:3
44,23:3
44,27:2
44,28:2
44,29:3
44,30:3
44,31:3
44,32:3
44,33:3
44,34:1
44,35:1
44,36:1
44,37:1
44,38:1
44,41:3
44,42:3
44,43:3
44,45:3
44,46:3
44,47:2
44,48:2
44,49:1
44,54:3
44,56:1
44,59:3
44,61:2
44,62:2
44,63:3
44,64:2
44,66:2
44,67:3
47,19:1
47,22:1
47,23:1
47,29:1
47,30:1
47,31:1
47,32:1
47,33:1
47,41:1
47,42:1
47,43:1
47,45:1
47,46:1
47,54:1
47,59:1
47,63:1
47,67:1
48,19:1
48,22:1
48,23:1
48,29:1
48,30:1
48,31:1
48,32:1
48,33:1
48,41:1
48,42:1
48,43:1
48,45:1
48,46:1
48,52:1
48,53:1
48,54:1
48,59:1
48,63:1
48,67:1
48,70:1
48,71:1
48,72:1
48,73:1
48,74:1
48,77:1
48,78:1
49,10:1
49,12:1
49,13:1
49,17:1
49,18:1
49,19:2
49,22:2
49,23:2
49,27:1
49,28:1
49,29:2
49,30:2
49,31:2
49,32:2
49,33:2
49,41:2
49,42:2
49,43:2
49,45:2
49,46:2
49,47:1
49,48:1
49,54:2
49,59:2
49,61:1
49,62:1
49,63:2
49,64:1
49,66:1
49,67:2
50,1:1
50,2:1
50,3:1
50,4:1
50,5:1
50,8:1
50,9:1
50,10:2
50,12:2
50,13:2
50,14:1
50,15:1
50,17:2
50,18:2
50,19:3
50,20:1
50,21:1
50,22:3
50,23:3
50,27:2
50,28:2
50,29:3
50,30:3
50,31:3
50,32:3
50,33:3
50,34:1
50,35:1
50,36:1
50,37:1
50,38:1
50,41:3
50,42:3
50,43:3
50,45:3
50,46:3
50,47:2
50,48:2
50,49:1
50,54:3
50,56:1
50,59:3
50,61:2
50,62:2
50,63:3
50,64:2
50,66:2
50,67:3
51,1:1
51,2:1
51,3:1
51,4:1
51,5:1
51,8:1
51,9:1
51,10:2
51,12:2
51,13:2
51,14:1
51,15:1
51,17:2
51,18:2
51,19:3
51,20:1
51,21:1
51,22:3
51,23:3
51,27:2
51,28:2
51,29:3
51,30:3
51,31:3
51,32:3
51,33:3
51,34:1
51,35:1
51,36:1
51,37:1
51,38:1
51,41:3
51,42:3
51,43:3
51,45:3
51,46:3
51,47:2
51,48:2
51,49:1
51,54:3
51,56:1
51,59:3
51,61:2
51,62:2
51,63:3
51,64:2
51,66:2
51,67:3
55,1:1
55,2:1
55,3:1
55,4:1
55,5:1
55,8:1
55,9:1
55,10:2
55,12:2
55,13:2
55,14:1
55,15:1
55,17:2
55,18:2
55,19:3
55,20:1
55,21:1
55,22:3
55,23:3
55,27:2
55,28:2
55,29:3
55,30:3
55,31:3
55,32:3
55,33:3
55,34:1
55,35:1
55,36:1
55,37:1
55,38:1
55,41:3
55,42:3
55,43:3
55,45:3
55,46:3
55,47:2
55,48:2
55,49:1
55,52:3
55,53:3
55,54:3
55,68:2
55,69:2
55,70:3
55,71:3
55,72:3
55,80:1
56,10:1
56,12:1
56,13:1
56,17:1
56,18:1
56,19:2
56,22:2
56,23:2
56,27:1
56,28:1
56,29:2
56,30:2
56,31:2
56,32:2
56,33:2
56,41:2
56,42:2
56,43:2
56,45:2
56,46:2
56,47:1
56,48:1
56,52:2
56,53:2
56,54:2
56,68:1
56,69:1
56,70:2
56,71:2
56,72:2
57,1:1
57,2:1
57,3:1
57,4:1
57,5:1
57,8:1
57,9:1
57,10:2
57,12:2
57,13:2
57,14:1
57,15:1
57,17:2
57,18:2
57,19:3
57,20:1
57,21:1
57,22:3
57,23:3
57,27:2
57,28:2
57,29:3
57,30:3
57,31:3
57,32:3
57,33:3
57,34:1
57,35:1
57,36:1
57,37:1
57,38:1
57,41:3
57,42:3
57,43:3
57,45:3
57,46:3
57,47:2
57,48:2
57,49:1
57,52:3
57,53:3
57,54:3
57,56:1
57,68:2
57,69:2
57,70:3
57,71:3
57,72:3
57,80:1
58,1:1
58,2:1
58,3:1
58,4:1
58,5:1
58,8:1
58,9:1
58,10:2
58,12:2
58,13:2
58,14:1
58,15:1
58,17:2
58,18:2
58,19:3
58,20:1
58,21:1
58,22:3
58,23:3
58,27:2
58,28:2
58,29:3
58,30:3
58,31:3
58,32:3
58,33:3
58,34:1
58,35:1
58,36:1
58,37:1
58,38:1
58,41:3
58,42:3
58,43:3
58,45:3
58,46:3
58,47:2
58,48:2
58,49:1
58,52:3
58,53:3
58,54:3
58,56:1
58,59:3
58,61:2
58,62:2
58,63:3
58,64:2
58,66:2
58,68:2
58,69:2
58,70:3
58,71:3
58,72:3
58,80:1
60,1:1
60,2:1
60,3:1
60,4:1
60,5:1
60,8:1
60,9:1
60,10:2
60,12:2
60,13:2
60,14:1
60,15:1
60,17:2
60,18:2
60,19:3
60,20:1
60,21:1
60,22:3
60,23:3
60,27:2
60,28:2
60,29:3
60,30:3
60,31:3
60,32:3
60,33:3
60,34:1
60,35:1
60,36:1
60,37:1
60,38:1
60,41:3
60,42:3
60,43:3
60,45:3
60,46:3
60,47:2
60,48:2
60,49:1
60,52:3
60,53:3
60,54:3
60,56:1
60,59:3
60,61:2
60,62:2
60,63:3
60,64:2
60,66:2
60,68:2
60,69:2
60,70:3
60,71:3
60,72:3
60,80:1
61,19:1
61,22:1
61,23:1
61,29:1
61,30:1
61,31:1
61,32:1
61,33:1
61,41:1
61,42:1
61,43:1
61,45:1
61,46:1
61,52:1
61,53:1
61,54:1
61,59:1
61,63:1
61,70:1
61,71:1
61,72:1
62,19:1
62,22:1
62,23:1
62,29:1
62,30:1
62,31:1
62,32:1
62,33:1
62,41:1
62,42:1
62,43:1
62,45:1
62,46:1
62,52:1
62,53:1
62,54:1
62,59:1
62,63:1
62,70:1
62,71:1
62,72:1
64,19:1
64,22:1
64,23:1
64,29:1
64,30:1
64,31:1
64,32:1
64,33:1
64,41:1
64,42:1
64,43:1
64,45:1
64,46:1
64,52:1
64,53:1
64,54:1
64,59:1
64,63:1
64,70:1
64,71:1
64,72:1
65,1:1
65,2:1
65,3:1
65,4:1
65,5:1
65,8:1
65,9:1
65,10:2
65,12:2
65,13:2
65,14:1
65,15:1
65,17:2
65,18:2
65,19:3
65,20:1
65,21:1
65,22:3
65,23:3
65,27:2
65,28:2
65,29:3
65,30:3
65,31:3
65,32:3
65,33:3
65,34:1
65,35:1
65,36:1
65,37:1
65,38:1
65,41:3
65,42:3
65,43:3
65,45:3
65,46:3
65,47:2
65,48:2
65,49:1
65,52:3
65,53:3
65,54:3
65,56:1
65,59:3
65,61:2
65,62:2
65,63:3
65,64:2
65,66:2
65,68:2
65,69:2
65,70:3
65,71:3
65,72:3
65,80:1
66,19:1
66,22:1
66,23:1
66,29:1
66,30:1
66,31:1
66,32:1
66,33:1
66,41:1
66,42:1
66,43:1
66,45:1
66,46:1
66,52:1
66,53:1
66,54:1
66,59:1
66,63:1
66,70:1
66,71:1
66,72:1
68,19:1
68,22:1
68,23:1
68,29:1
68,30:1
68,31:1
68,32:1
68,33:1
68,41:1
68,42:1
68,43:1
68,45:1
68,46:1
68,52:1
68,53:1
68,54:1
68,59:1
68,63:1
68,67:1
68,70:1
68,71:1
68,73:1
68,74:1
68,77:1
69,19:1
69,22:1
69,23:1
69,29:1
69,30:1
69,31:1
69,32:1
69,33:1
69,41:1
69,42:1
69,43:1
69,45:1
69,46:1
69,52:1
69,53:1
69,54:1
69,59:1
69,63:1
69,67:1
69,70:1
69,71:1
69,73:1
69,74:1
69,77:1
75,10:1
75,12:1
75,13:1
75,17:1
75,18:1
75,19:2
75,22:2
75,23:2
75,27:1
75,28:1
75,29:2
75,30:2
75,31:2
75,32:2
75,33:2
75,41:2
75,42:2
75,43:2
75,45:2
75,46:2
75,47:1
75,48:1
75,52:2
75,53:2
75,54:2
75,59:2
75,61:1
75,62:1
75,63:2
75,64:1
75,66:1
75,67:2
75,68:1
75,69:1
75,70:2
75,71:2
75,72:2
75,73:2
75,74:2
76,1:1
76,2:1
76,3:1
76,4:1
76,5:1
76,8:1
76,9:1
76,10:2
76,12:2
76,13:2
76,14:1
76,15:1
76,17:2
76,18:2
76,19:3
76,20:1
76,21:1
76,22:3
76,23:3
76,27:2
76,28:2
76,29:3
76,30:3
76,31:3
76,32:3
76,33:3
76,34:1
76,35:1
76,36:1
76,37:1
76,38:1
76,41:3
76,42:3
76,43:3
76,45:3
76,46:3
76,47:2
76,48:2
76,49:1
76,52:3
76,53:3
76,54:3
76,56:1
76,59:3
76,61:2
76,62:2
76,63:3
76,64:2
76,66:2
76,67:3
76,68:2
76,69:2
76,70:3
76,71:3
76,72:3
76,73:3
76,74:3
76,75:1
76,77:3
76,78:3
76,79:1
76,80:1
79,10:1
79,12:1
79,13:1
79,17:1
79,18:1
79,19:2
79,22:2
79,23:2
79,27:1
79,28:1
79,29:2
79,30:2
79,31:2
79,32:2
79,33:2
79,41:2
79,42:2
79,43:2
79,45:2
79,46:2
79,47:1
79,48:1
79,52:2
79,53:2
79,54:2
79,59:2
79,61:1
79,62:1
79,63:2
79,64:1
79,66:1
79,67:2
79,68:1
79,69:1
79,70:2
79,71:2
79,72:2
79,73:2
79,74:2
79,77:2
79,78:2
80,10:1
80,12:1
80,13:1
80,17:1
80,18:1
80,19:2
80,22:2
80,23:2
80,27:1
80,28:1
80,29:2
80,30:2
80,31:2
80,32:2
80,33:2
80,41:2
80,42:2
80,43:2
80,45:2
80,46:2
80,47:1
80,48:1
80,52:2
80,53:2
80,54:2
80,59:2
80,61:1
80,62:1
80,63:2
80,64:1
80,66:1
80,67:2
80,68:1
80,69:1
80,70:2
80,71:2
80,72:2
80,73:2
80,74:2
80,77:2
80,78:2
81,1:1
81,2:1
81,3:1
81,4:1
81,5:1
81,8:1
81,9:1
81,10:2
81,12:2
81,13:2
81,14:1
81,15:1
81,17:2
81,18:2
81,19:3
81,20:1
81,21:1
81,22:3
81,23:3
81,27:2
81,28:2
81,29:3
81,30:3
81,31:3
81,32:3
81,33:3
81,34:1
81,35:1
81,36:1
81,37:1
81,38:1
81,41:3
81,42:3
81,43:3
81,45:3
81,46:3
81,47:2
81,48:2
81,49:1
81,52:3
81,53:3
81,54:3
81,56:1
81,59:3
81,61:2
81,62:2
81,63:3
81,64:2
81,66:2
81,67:3
81,68:2
81,69:2
81,70:3
81,71:3
81,72:3
81,73:3
81,74:3
81,75:1
81,77:3
81,78:3
81,79:1
81,80:1
82,1:1
82,2:1
82,3:1
82,4:1
82,5:1
82,8:1
82,9:1
82,10:2
82,12:2
82,13:2
82,14:1
82,15:1
82,17:2
82,18:2
82,19:3
82,20:1
82,21:1
82,22:3
82,23:3
82,27:2
82,28:2
82,29:3
82,30:3
82,31:3
82,32:3
82,33:3
82,34:1
82,35:1
82,36:1
82,37:1
82,38:1
82,41:3
82,42:3
82,43:3
82,45:3
82,46:3
82,47:2
82,48:2
82,49:1
82,52:3
82,53:3
82,54:3
82,56:1
82,59:3
82,61:2
82,62:2
82,63:3
82,64:2
82,66:2
82,67:3
82,68:2
82,69:2
82,70:3
82,71:3
82,72:3
82,73:3
82,74:3
82,75:1
82,77:3
82,78:3
82,79:1
82,80:1
83,1:1
83,2:1
83,3:1
83,4:1
83,5:1
83,8:1
83,9:1
83,10:2
83,12:2
83,13:2
83,14:1
83,15:1
83,17:2
83,18:2
83,19:3
83,20:1
83,21:1
83,22:3
83,23:3
83,27:2
83,28:2
83,29:3
83,30:3
83,31:3
83,32:3
83,33:3
83,34:1
83,35:1
83,36:1
83,37:1
83,38:1
83,41:3
83,42:3
83,43:3
83,45:3
83,46:3
83,47:2
83,48:2
83,49:1
83,52:3
83,53:3
83,54:3
83,56:1
83,59:3
83,61:2
83,62:2
83,63:3
83,64:2
83,66:2
83,67:3
83,68:2
83,69:2
83,70:3
83,71:3
83,72:3
83,73:3
83,74:3
83,75:1
83,77:3
83,78:3
83,79:1
83,80:1
84,1:1
84,2:1
84,3:1
84,4:1
84,5:1
84,8:1
84,9:1
84,10:2
84,12:2
84,13:2
84,14:1
84,15:1
84,17:2
84,18:2
84,19:3
84,20:1
84,21:1
84,22:3
84,23:3
84,27:2
84,28:2
84,29:3
84,30:3
84,31:3
84,32:3
84,33:3
84,34:1
84,35:1
84,36:1
84,37:1
84,38:1
84,41:3
84,42:3
84,43:3
84,45:3
84,46:3
84,47:2
84,48:2
84,49:1
84,52:3
84,53:3
84,54:3
84,56:1
84,59:3
84,61:2
84,62:2
84,63:3
84,64:2
84,66:2
84,67:3
84,68:2
84,69:2
84,70:3
84,71:3
84,72:3
84,73:3
84,74:3
84,75:1
84,77:3
84,78:3
84,79:1
84,80:1
85,1:1
85,2:1
85,3:1
85,4:1
85,5:1
85,8:1
85,9:1
85,10:2
85,12:2
85,13:2
85,14:1
85,15:1
85,17:2
85,18:2
85,19:3
85,20:1
85,21:1
85,22:3
85,23:3
85,27:2
85,28:2
85,29:3
85,30:3
85,31:3
85,32:3
85,33:3
85,34:1
85,35:1
85,36:1
85,37:1
85,38:1
85,41:3
85,42:3
85,43:3
85,45:3
85,46:3
85,47:2
85,48:2
85,49:1
85,52:3
85,53:3
85,54:3
85,56:1
85,59:3
85,61:2
85,62:2
85,63:3
85,64:2
85,66:2
85,67:3
85,68:2
85,69:2
85,70:3
85,71:3
85,72:3
85,73:3
85,74:3
85,75:1
85,77:3
85,78:3
85,79:1
85,80:1
86,1:1
86,2:1
86,3:1
86,4:1
86,5:1
86,8:1
86,9:1
86,10:2
86,12:2
86,13:2
86,14:1
86,15:1
86,17:2
86,18:2
86,19:3
86,20:1
86,21:1
86,22:3
86,23:3
86,27:2
86,28:2
86,29:3
86,30:3
86,31:3
86,32:3
86,33:3
86,34:1
86,35:1
86,36:1
86,37:1
86,38:1
86,41:3
86,42:3
86,43:3
86,45:3
86,46:3
86,47:2
86,48:2
86,49:1
86,52:3
86,53:3
86,54:3
86,56:1
86,59:3
86,61:2
86,62:2
86,63:3
86,64:2
86,66:2
86,67:3
86,68:2
86,69:2
86,70:3
86,71:3
86,72:3
86,73:3
86,74:3
86,75:1
86,77:3
86,78:3
86,79:1
86,80:1
87,10:1
87,12:1
87,13:1
87,17:1
87,18:1
87,19:2
87,22:2
87,23:2
87,27:1
87,28:1
87,29:2
87,30:2
87,31:2
87,32:2
87,33:2
87,41:2
87,42:2
87,43:2
87,45:2
87,46:2
87,47:1
87,48:1
87,52:2
87,53:2
87,54:2
87,59:2
87,61:1
87,62:1
87,63:2
87,64:1
87,66:1
87,67:2
87,68:1
87,69:1
87,70:2
87,71:2
87,72:2
87,73:2
87,74:2
87,77:2
87,78:2
88,10:1
88,12:1
88,13:1
88,17:1
88,18:1
88,19:2
88,22:2
88,23:2
88,27:1
88,28:1
88,29:2
88,30:2
88,31:2
88,32:2
88,33:2
88,41:2
88,42:2
88,43:2
88,45:2
88,46:2
88,47:1
88,48:1
88,52:2
88,53:2
88,54:2
88,59:2
88,61:1
88,62:1
88,63:2
88,64:1
88,66:1
88,67:2
88,68:1
88,69:1
88,70:2
88,71:2
88,72:2
88,73:2
88,74:2
88,77:2
88,78:2
89,10:1
89,12:1
89,13:1
89,17:1
89,18:1
89,19:2
89,22:2
89,23:2
89,27:1
89,28:1
89,29:2
89,30:2
89,31:2
89,32:2
89,33:2
89,41:2
89,42:2
89,43:2
89,45:2
89,46:2
89,47:1
89,48:1
89,52:2
89,53:2
89,54:2
89,59:2
89,61:1
89,62:1
89,63:2
89,64:1
89,66:1
89,67:2
89,68:1
89,69:1
89,70:2
89,71:2
89,72:2
89,73:2
89,74:2
89,77:2
89,78:2

<end>

<optimal SALBP-1 value>
34


<rand seed>
467321153

